Maximize
F - f1 - f2

Subject to
F - 4y87 - 6y21 - 6y71 - 2y106 - 2y170 - 8y204 - 6y261 - 8y235 - 4y84 - 2y181 - 8y142 - 2y215 - 6y56 - 6y189 - 6y33 - 8y191 - 2y257 - 6y259 - 4y35 = 0
f1 - 0.006553s87 - 0.006553s21 - 0.006553s71 - 0.006553s106 - 0.006553s170 - 0.006553s204 - 0.006553s261 - 0.006553s235 - 0.006553s84 - 0.006553s181 - 0.006553s142 - 0.006553s215 - 0.006553s56 - 0.006553s189 - 0.006553s33 - 0.006553s191 - 0.006553s257 - 0.006553s259 - 0.006553s35  = 0
f2 - 1.07y87 - 1.20y21 - 1.62y71 - 1.06y106 - 1.59y170 - 0.89y204 - 0.85y261 - 1.27y235 - 1.39y84 - 0.52y181 - 0.49y142 - 0.35y215 - 0.52y56 - 0.60y189 - 0.22y33 - 0.15y191 - 0.50y257 - 2.23y259 - 0.02y35 = 0

x234x21x1 + x234x204x1 + x234x235x1 + x234x84x1 + x234x215x1 + x234x189x1 + x234x191x1 
<= 2
x81x87x1 + x81x21x1 + x81x71x1 + x81x106x1 + x81x204x1 + x81x235x1 + x81x84x1 + x81x215x1 + x81x189x1 + x81x191x1 
<= 1
x159x204x1 + x159x235x1 + x159x84x1 + x159x215x1 + x159x189x1 + x159x191x1 
<= 1
x23x87x1 + x23x21x1 + x23x71x1 + x23x106x1 + x23x204x1 + x23x235x1 + x23x84x1 + x23x215x1 + x23x189x1 + x23x191x1 
<= 1
x264x87x1 + x264x21x1 + x264x71x1 + x264x106x1 + x264x204x1 + x264x235x1 + x264x84x1 + x264x215x1 + x264x189x1 + x264x191x1 
<= 1
x263x87x1 + x263x21x1 + x263x71x1 + x263x106x1 + x263x204x1 + x263x235x1 + x263x84x1 + x263x215x1 + x263x189x1 + x263x191x1 
<= 1
x178x87x1 + x178x21x1 + x178x71x1 + x178x106x1 + x178x204x1 + x178x235x1 + x178x84x1 + x178x215x1 + x178x189x1 + x178x191x1 
<= 1

x123x261x2 + x123x181x2 + x123x215x2 + x123x56x2 + x123x189x2 + x123x33x2 + x123x191x2 + x123x257x2 + x123x259x2 + x123x35x2 
<= 2
x165x33x2 + x165x191x2 + x165x257x2 + x165x259x2 + x165x35x2 
<= 2
x37x204x2 + x37x261x2 + x37x181x2 + x37x215x2 + x37x56x2 + x37x189x2 + x37x33x2 + x37x191x2 + x37x257x2 + x37x259x2 + x37x35x2 
<= 1
x82x204x2 + x82x261x2 + x82x181x2 + x82x215x2 + x82x56x2 + x82x189x2 + x82x33x2 + x82x191x2 + x82x257x2 + x82x259x2 + x82x35x2 
<= 1
x182x235x3 + x182x84x3 + x182x181x3 + x182x142x3 + x182x56x3 + x182x259x3 
<= 2
x145x259x3 
<= 2
x159x261x3 + x159x235x3 + x159x84x3 + x159x181x3 + x159x142x3 + x159x56x3 + x159x259x3 
<= 1
x37x21x3 + x37x106x3 + x37x170x3 + x37x261x3 + x37x235x3 + x37x84x3 + x37x181x3 + x37x142x3 + x37x56x3 + x37x259x3 
<= 1
x82x21x3 + x82x106x3 + x82x170x3 + x82x261x3 + x82x235x3 + x82x84x3 + x82x181x3 + x82x142x3 + x82x56x3 + x82x259x3 
<= 1
x81x87x1 + x23x87x1 + x264x87x1 + x263x87x1 + x178x87x1 
- x87x0x1
- x87x204x1 - x87x235x1 - x87x84x1 - x87x215x1 - x87x189x1 - x87x191x1 
= 0



x234x21x1 + x81x21x1 + x23x21x1 + x264x21x1 + x263x21x1 + x178x21x1 
- x21x0x1
- x21x235x1 - x21x84x1 - x21x215x1 - x21x189x1 - x21x191x1 
= 0

x37x21x3 + x82x21x3 
- x21x0x3
- x21x235x3 - x21x84x3 - x21x181x3 - x21x142x3 - x21x56x3 - x21x259x3 
= 0

x81x71x1 + x23x71x1 + x264x71x1 + x263x71x1 + x178x71x1 
- x71x0x1
- x71x204x1 - x71x235x1 - x71x84x1 - x71x215x1 - x71x189x1 - x71x191x1 
= 0



x81x106x1 + x23x106x1 + x264x106x1 + x263x106x1 + x178x106x1 
- x106x0x1
- x106x204x1 - x106x235x1 - x106x84x1 - x106x215x1 - x106x189x1 - x106x191x1 
= 0

x37x106x3 + x82x106x3 
- x106x0x3
- x106x261x3 - x106x235x3 - x106x84x3 - x106x181x3 - x106x142x3 - x106x56x3 - x106x259x3 
= 0



x37x170x3 + x82x170x3 
- x170x0x3
- x170x261x3 - x170x235x3 - x170x84x3 - x170x181x3 - x170x142x3 - x170x56x3 - x170x259x3 
= 0

x234x204x1 + x81x204x1 + x159x204x1 + x23x204x1 + x264x204x1 + x263x204x1 + x178x204x1 + x87x204x1 + x71x204x1 + x106x204x1 
- x204x0x1
- x204x235x1 - x204x84x1 - x204x215x1 - x204x189x1 - x204x191x1 
= 0
x37x204x2 + x82x204x2 
- x204x0x2
- x204x261x2 - x204x181x2 - x204x215x2 - x204x56x2 - x204x189x2 - x204x33x2 - x204x191x2 - x204x257x2 - x204x259x2 - x204x35x2 
= 0



x123x261x2 + x37x261x2 + x82x261x2 + x204x261x2 
- x261x0x2
- x261x215x2 - x261x56x2 - x261x189x2 - x261x33x2 - x261x191x2 - x261x257x2 - x261x259x2 - x261x35x2 
= 0
x159x261x3 + x37x261x3 + x82x261x3 + x106x261x3 + x170x261x3 
- x261x0x3
- x261x84x3 - x261x56x3 - x261x259x3 
= 0

x234x235x1 + x81x235x1 + x159x235x1 + x23x235x1 + x264x235x1 + x263x235x1 + x178x235x1 + x87x235x1 + x21x235x1 + x71x235x1 + x106x235x1 + x204x235x1 
- x235x0x1
- x235x84x1 - x235x189x1 - x235x191x1 
= 0

x182x235x3 + x159x235x3 + x37x235x3 + x82x235x3 + x21x235x3 + x106x235x3 + x170x235x3 
- x235x0x3
- x235x84x3 - x235x56x3 - x235x259x3 
= 0

x234x84x1 + x81x84x1 + x159x84x1 + x23x84x1 + x264x84x1 + x263x84x1 + x178x84x1 + x87x84x1 + x21x84x1 + x71x84x1 + x106x84x1 + x204x84x1 + x235x84x1 
- x84x0x1

= 0

x182x84x3 + x159x84x3 + x37x84x3 + x82x84x3 + x21x84x3 + x106x84x3 + x170x84x3 + x261x84x3 + x235x84x3 
- x84x0x3
- x84x259x3 
= 0


x123x181x2 + x37x181x2 + x82x181x2 + x204x181x2 
- x181x0x2
- x181x33x2 - x181x191x2 - x181x35x2 
= 0
x182x181x3 + x159x181x3 + x37x181x3 + x82x181x3 + x21x181x3 + x106x181x3 + x170x181x3 
- x181x0x3
- x181x142x3 
= 0



x182x142x3 + x159x142x3 + x37x142x3 + x82x142x3 + x21x142x3 + x106x142x3 + x170x142x3 + x181x142x3 
- x142x0x3

= 0

x234x215x1 + x81x215x1 + x159x215x1 + x23x215x1 + x264x215x1 + x263x215x1 + x178x215x1 + x87x215x1 + x21x215x1 + x71x215x1 + x106x215x1 + x204x215x1 
- x215x0x1
- x215x191x1 
= 0
x123x215x2 + x37x215x2 + x82x215x2 + x204x215x2 + x261x215x2 
- x215x0x2
- x215x33x2 - x215x191x2 - x215x35x2 
= 0



x123x56x2 + x37x56x2 + x82x56x2 + x204x56x2 + x261x56x2 
- x56x0x2
- x56x257x2 - x56x35x2 
= 0
x182x56x3 + x159x56x3 + x37x56x3 + x82x56x3 + x21x56x3 + x106x56x3 + x170x56x3 + x261x56x3 + x235x56x3 
- x56x0x3

= 0

x234x189x1 + x81x189x1 + x159x189x1 + x23x189x1 + x264x189x1 + x263x189x1 + x178x189x1 + x87x189x1 + x21x189x1 + x71x189x1 + x106x189x1 + x204x189x1 + x235x189x1 
- x189x0x1

= 0
x123x189x2 + x37x189x2 + x82x189x2 + x204x189x2 + x261x189x2 
- x189x0x2
- x189x257x2 - x189x35x2 
= 0



x123x33x2 + x165x33x2 + x37x33x2 + x82x33x2 + x204x33x2 + x261x33x2 + x181x33x2 + x215x33x2 
- x33x0x2

= 0


x234x191x1 + x81x191x1 + x159x191x1 + x23x191x1 + x264x191x1 + x263x191x1 + x178x191x1 + x87x191x1 + x21x191x1 + x71x191x1 + x106x191x1 + x204x191x1 + x235x191x1 + x215x191x1 
- x191x0x1

= 0
x123x191x2 + x165x191x2 + x37x191x2 + x82x191x2 + x204x191x2 + x261x191x2 + x181x191x2 + x215x191x2 
- x191x0x2

= 0



x123x257x2 + x165x257x2 + x37x257x2 + x82x257x2 + x204x257x2 + x261x257x2 + x56x257x2 + x189x257x2 
- x257x0x2

= 0



x123x259x2 + x165x259x2 + x37x259x2 + x82x259x2 + x204x259x2 + x261x259x2 
- x259x0x2

= 0
x182x259x3 + x145x259x3 + x159x259x3 + x37x259x3 + x82x259x3 + x21x259x3 + x106x259x3 + x170x259x3 + x261x259x3 + x235x259x3 + x84x259x3 
- x259x0x3

= 0


x123x35x2 + x165x35x2 + x37x35x2 + x82x35x2 + x204x35x2 + x261x35x2 + x181x35x2 + x215x35x2 + x56x35x2 + x189x35x2 
- x35x0x2

= 0


2y87 - x81x87x1 - x23x87x1 - x264x87x1 - x263x87x1 - x178x87x1 = 0
1y21 - x234x21x1 - x81x21x1 - x23x21x1 - x264x21x1 - x263x21x1 - x178x21x1 = 0
1y21 - x37x21x3 - x82x21x3 = 0
2y71 - x81x71x1 - x23x71x1 - x264x71x1 - x263x71x1 - x178x71x1 = 0
1y106 - x81x106x1 - x23x106x1 - x264x106x1 - x263x106x1 - x178x106x1 = 0
1y106 - x37x106x3 - x82x106x3 = 0
2y170 - x37x170x3 - x82x170x3 = 0
1y204 - x234x204x1 - x81x204x1 - x159x204x1 - x23x204x1 - x264x204x1 - x263x204x1 - x178x204x1 - x87x204x1 - x71x204x1 - x106x204x1 = 0
1y204 - x37x204x2 - x82x204x2 = 0
1y261 - x123x261x2 - x37x261x2 - x82x261x2 - x204x261x2 = 0
1y261 - x159x261x3 - x37x261x3 - x82x261x3 - x106x261x3 - x170x261x3 = 0
1y235 - x234x235x1 - x81x235x1 - x159x235x1 - x23x235x1 - x264x235x1 - x263x235x1 - x178x235x1 - x87x235x1 - x21x235x1 - x71x235x1 - x106x235x1 - x204x235x1 = 0
1y235 - x182x235x3 - x159x235x3 - x37x235x3 - x82x235x3 - x21x235x3 - x106x235x3 - x170x235x3 = 0
1y84 - x234x84x1 - x81x84x1 - x159x84x1 - x23x84x1 - x264x84x1 - x263x84x1 - x178x84x1 - x87x84x1 - x21x84x1 - x71x84x1 - x106x84x1 - x204x84x1 - x235x84x1 = 0
1y84 - x182x84x3 - x159x84x3 - x37x84x3 - x82x84x3 - x21x84x3 - x106x84x3 - x170x84x3 - x261x84x3 - x235x84x3 = 0
1y181 - x123x181x2 - x37x181x2 - x82x181x2 - x204x181x2 = 0
1y181 - x182x181x3 - x159x181x3 - x37x181x3 - x82x181x3 - x21x181x3 - x106x181x3 - x170x181x3 = 0
2y142 - x182x142x3 - x159x142x3 - x37x142x3 - x82x142x3 - x21x142x3 - x106x142x3 - x170x142x3 - x181x142x3 = 0
1y215 - x234x215x1 - x81x215x1 - x159x215x1 - x23x215x1 - x264x215x1 - x263x215x1 - x178x215x1 - x87x215x1 - x21x215x1 - x71x215x1 - x106x215x1 - x204x215x1 = 0
1y215 - x123x215x2 - x37x215x2 - x82x215x2 - x204x215x2 - x261x215x2 = 0
1y56 - x123x56x2 - x37x56x2 - x82x56x2 - x204x56x2 - x261x56x2 = 0
1y56 - x182x56x3 - x159x56x3 - x37x56x3 - x82x56x3 - x21x56x3 - x106x56x3 - x170x56x3 - x261x56x3 - x235x56x3 = 0
1y189 - x234x189x1 - x81x189x1 - x159x189x1 - x23x189x1 - x264x189x1 - x263x189x1 - x178x189x1 - x87x189x1 - x21x189x1 - x71x189x1 - x106x189x1 - x204x189x1 - x235x189x1 = 0
1y189 - x123x189x2 - x37x189x2 - x82x189x2 - x204x189x2 - x261x189x2 = 0
2y33 - x123x33x2 - x165x33x2 - x37x33x2 - x82x33x2 - x204x33x2 - x261x33x2 - x181x33x2 - x215x33x2 = 0
1y191 - x234x191x1 - x81x191x1 - x159x191x1 - x23x191x1 - x264x191x1 - x263x191x1 - x178x191x1 - x87x191x1 - x21x191x1 - x71x191x1 - x106x191x1 - x204x191x1 - x235x191x1 - x215x191x1 = 0
1y191 - x123x191x2 - x165x191x2 - x37x191x2 - x82x191x2 - x204x191x2 - x261x191x2 - x181x191x2 - x215x191x2 = 0
2y257 - x123x257x2 - x165x257x2 - x37x257x2 - x82x257x2 - x204x257x2 - x261x257x2 - x56x257x2 - x189x257x2 = 0
1y259 - x123x259x2 - x165x259x2 - x37x259x2 - x82x259x2 - x204x259x2 - x261x259x2 = 0
1y259 - x182x259x3 - x145x259x3 - x159x259x3 - x37x259x3 - x82x259x3 - x21x259x3 - x106x259x3 - x170x259x3 - x261x259x3 - x235x259x3 - x84x259x3 = 0
2y35 - x123x35x2 - x165x35x2 - x37x35x2 - x82x35x2 - x204x35x2 - x261x35x2 - x181x35x2 - x215x35x2 - x56x35x2 - x189x35x2 = 0

s182 - s235 + 7.953940z182z235z3 <= 6.55
s182 - s84 + 7.950438z182z84z3 <= 6.55
s182 - s181 + 7.975979z182z181z3 <= 6.55
s182 - s142 + 7.979690z182z142z3 <= 6.55
s182 - s56 + 8.061365z182z56z3 <= 6.55
s182 - s259 + 7.875044z182z259z3 <= 6.55
s234 - s21 + 7.649472z234z21z1 <= 6.41
s234 - s204 + 7.827477z234z204z1 <= 6.41
s234 - s235 + 7.842849z234z235z1 <= 6.41
s234 - s84 + 7.848346z234z84z1 <= 6.41
s234 - s215 + 7.835601z234z215z1 <= 6.41
s234 - s189 + 7.917750z234z189z1 <= 6.41
s234 - s191 + 7.853673z234z191z1 <= 6.41
s145 - s259 + 8.047949z145z259z3 <= 6.84
s81 - s87 + 7.433978z81z87z1 <= 6.32
s81 - s21 + 7.469511z81z21z1 <= 6.32
s81 - s71 + 7.443399z81z71z1 <= 6.32
s81 - s106 + 7.462699z81z106z1 <= 6.32
s81 - s204 + 7.509826z81z204z1 <= 6.32
s81 - s235 + 7.525264z81z235z1 <= 6.32
s81 - s84 + 7.534716z81z84z1 <= 6.32
s81 - s215 + 7.551735z81z215z1 <= 6.32
s81 - s189 + 7.598876z81z189z1 <= 6.32
s81 - s191 + 7.580440z81z191z1 <= 6.32
s159 - s204 + 7.854639z159z204z1 <= 6.63
s159 - s261 + 7.869515z159z261z3 <= 6.63
s159 - s235 + 7.894691z159z235z1 <= 6.63
s159 - s235 + 7.894691z159z235z3 <= 6.63
s159 - s84 + 7.909024z159z84z1 <= 6.63
s159 - s84 + 7.909024z159z84z3 <= 6.63
s159 - s181 + 7.800895z159z181z3 <= 6.63
s159 - s142 + 7.804381z159z142z3 <= 6.63
s159 - s215 + 7.854143z159z215z1 <= 6.63
s159 - s56 + 7.946764z159z56z3 <= 6.63
s159 - s189 + 7.945002z159z189z1 <= 6.63
s159 - s191 + 7.875122z159z191z1 <= 6.63
s159 - s259 + 7.945849z159z259z3 <= 6.63
s123 - s261 + 7.894074z123z261z2 <= 6.71
s123 - s181 + 7.928945z123z181z2 <= 6.71
s123 - s215 + 7.941986z123z215z2 <= 6.71
s123 - s56 + 7.973951z123z56z2 <= 6.71
s123 - s189 + 7.967635z123z189z2 <= 6.71
s123 - s33 + 7.964195z123z33z2 <= 6.71
s123 - s191 + 7.973609z123z191z2 <= 6.71
s123 - s257 + 8.001856z123z257z2 <= 6.71
s123 - s259 + 7.923289z123z259z2 <= 6.71
s123 - s35 + 8.030881z123z35z2 <= 6.71
s165 - s33 + 8.191352z165z33z2 <= 7.03
s165 - s191 + 8.202298z165z191z2 <= 7.03
s165 - s257 + 8.277600z165z257z2 <= 7.03
s165 - s259 + 8.300357z165z259z2 <= 7.03
s165 - s35 + 8.279977z165z35z2 <= 7.03
s23 - s87 + 6.648002z23z87z1 <= 5.38
s23 - s21 + 6.557149z23z21z1 <= 5.38
s23 - s71 + 6.761359z23z71z1 <= 5.38
s23 - s106 + 6.747439z23z106z1 <= 5.38
s23 - s204 + 6.794364z23z204z1 <= 5.38
s23 - s235 + 6.837711z23z235z1 <= 5.38
s23 - s84 + 6.850759z23z84z1 <= 5.38
s23 - s215 + 6.761068z23z215z1 <= 5.38
s23 - s189 + 6.883200z23z189z1 <= 5.38
s23 - s191 + 6.768733z23z191z1 <= 5.38
s37 - s21 + 7.150579z37z21z3 <= 5.84
s37 - s106 + 7.267776z37z106z3 <= 5.84
s37 - s170 + 7.257316z37z170z3 <= 5.84
s37 - s204 + 7.315438z37z204z2 <= 5.84
s37 - s261 + 7.329391z37z261z2 <= 5.84
s37 - s261 + 7.329391z37z261z3 <= 5.84
s37 - s235 + 7.320642z37z235z3 <= 5.84
s37 - s84 + 7.322810z37z84z3 <= 5.84
s37 - s181 + 7.272117z37z181z2 <= 5.84
s37 - s181 + 7.272117z37z181z3 <= 5.84
s37 - s142 + 7.274117z37z142z3 <= 5.84
s37 - s215 + 7.333008z37z215z2 <= 5.84
s37 - s56 + 7.409644z37z56z2 <= 5.84
s37 - s56 + 7.409644z37z56z3 <= 5.84
s37 - s189 + 7.404591z37z189z2 <= 5.84
s37 - s33 + 7.329799z37z33z2 <= 5.84
s37 - s191 + 7.352493z37z191z2 <= 5.84
s37 - s257 + 7.439439z37z257z2 <= 5.84
s37 - s259 + 7.271911z37z259z2 <= 5.84
s37 - s259 + 7.271911z37z259z3 <= 5.84
s37 - s35 + 7.453469z37z35z2 <= 5.84
s82 - s21 + 7.222344z82z21z3 <= 5.97
s82 - s106 + 7.264771z82z106z3 <= 5.97
s82 - s170 + 7.234672z82z170z3 <= 5.97
s82 - s204 + 7.309326z82z204z2 <= 5.97
s82 - s261 + 7.322021z82z261z2 <= 5.97
s82 - s261 + 7.322021z82z261z3 <= 5.97
s82 - s235 + 7.299906z82z235z3 <= 5.97
s82 - s84 + 7.299428z82z84z3 <= 5.97
s82 - s181 + 7.316999z82z181z2 <= 5.97
s82 - s181 + 7.316999z82z181z3 <= 5.97
s82 - s142 + 7.321061z82z142z3 <= 5.97
s82 - s215 + 7.356138z82z215z2 <= 5.97
s82 - s56 + 7.401465z82z56z2 <= 5.97
s82 - s56 + 7.401465z82z56z3 <= 5.97
s82 - s189 + 7.394383z82z189z2 <= 5.97
s82 - s33 + 7.366532z82z33z2 <= 5.97
s82 - s191 + 7.382959z82z191z2 <= 5.97
s82 - s257 + 7.427712z82z257z2 <= 5.97
s82 - s259 + 7.247907z82z259z2 <= 5.97
s82 - s259 + 7.247907z82z259z3 <= 5.97
s82 - s35 + 7.458111z82z35z2 <= 5.97
s264 - s87 + 6.530952z264z87z1 <= 4.89
s264 - s21 + 6.459225z264z21z1 <= 4.89
s264 - s71 + 6.571979z264z71z1 <= 4.89
s264 - s106 + 6.605311z264z106z1 <= 4.89
s264 - s204 + 6.653471z264z204z1 <= 4.89
s264 - s235 + 6.660777z264z235z1 <= 4.89
s264 - s84 + 6.662247z264z84z1 <= 4.89
s264 - s215 + 6.657335z264z215z1 <= 4.89
s264 - s189 + 6.743348z264z189z1 <= 4.89
s264 - s191 + 6.671665z264z191z1 <= 4.89
s263 - s87 + 6.623209z263z87z1 <= 4.90
s263 - s21 + 6.533222z263z21z1 <= 4.90
s263 - s71 + 6.788346z263z71z1 <= 4.90
s263 - s106 + 6.730150z263z106z1 <= 4.90
s263 - s204 + 6.763566z263z204z1 <= 4.90
s263 - s235 + 6.840690z263z235z1 <= 4.90
s263 - s84 + 6.862112z263z84z1 <= 4.90
s263 - s215 + 6.662416z263z215z1 <= 4.90
s263 - s189 + 6.830789z263z189z1 <= 4.90
s263 - s191 + 6.642968z263z191z1 <= 4.90
s178 - s87 + 7.029323z178z87z1 <= 4.97
s178 - s21 + 6.968868z178z21z1 <= 4.97
s178 - s71 + 7.032765z178z71z1 <= 4.97
s178 - s106 + 7.087379z178z106z1 <= 4.97
s178 - s204 + 7.133368z178z204z1 <= 4.97
s178 - s235 + 7.120046z178z235z1 <= 4.97
s178 - s84 + 7.114787z178z84z1 <= 4.97
s178 - s215 + 7.158498z178z215z1 <= 4.97
s178 - s189 + 7.219257z178z189z1 <= 4.97
s178 - s191 + 7.176959z178z191z1 <= 4.97
s87 - s204 + 8.771144z87z204z1 <= 7.62
s87 - s235 + 8.837665z87z235z1 <= 7.62
s87 - s84 + 8.858979z87z84z1 <= 7.62
s87 - s215 + 8.749443z87z215z1 <= 7.62
s87 - s189 + 8.856737z87z189z1 <= 7.62
s87 - s191 + 8.772315z87z191z1 <= 7.62
s21 - s235 + 8.972481z21z235z1 <= 7.66
s21 - s235 + 8.972481z21z235z3 <= 7.66
s21 - s84 + 8.991595z21z84z1 <= 7.66
s21 - s84 + 8.991595z21z84z3 <= 7.66
s21 - s181 + 8.786842z21z181z3 <= 7.66
s21 - s142 + 8.787367z21z142z3 <= 7.66
s21 - s215 + 8.863960z21z215z1 <= 7.66
s21 - s56 + 8.992867z21z56z3 <= 7.66
s21 - s189 + 8.994797z21z189z1 <= 7.66
s21 - s191 + 8.873437z21z191z1 <= 7.66
s21 - s259 + 9.050327z21z259z3 <= 7.66
s71 - s204 + 8.794007z71z204z1 <= 7.67
s71 - s235 + 8.758945z71z235z1 <= 7.67
s71 - s84 + 8.762616z71z84z1 <= 7.67
s71 - s215 + 8.899879z71z215z1 <= 7.67
s71 - s189 + 8.862411z71z189z1 <= 7.67
s71 - s191 + 8.935497z71z191z1 <= 7.67
s106 - s204 + 8.768534z106z204z1 <= 7.72
s106 - s261 + 8.783245z106z261z3 <= 7.72
s106 - s235 + 8.831754z106z235z1 <= 7.72
s106 - s235 + 8.831754z106z235z3 <= 7.72
s106 - s84 + 8.855973z106z84z1 <= 7.72
s106 - s84 + 8.855973z106z84z3 <= 7.72
s106 - s181 + 8.880554z106z181z3 <= 7.72
s106 - s142 + 8.887199z106z142z3 <= 7.72
s106 - s215 + 8.848236z106z215z1 <= 7.72
s106 - s56 + 8.862516z106z56z3 <= 7.72
s106 - s189 + 8.859203z106z189z1 <= 7.72
s106 - s191 + 8.883978z106z191z1 <= 7.72
s106 - s259 + 8.968908z106z259z3 <= 7.72
s170 - s261 + 8.917366z170z261z3 <= 7.79
s170 - s235 + 8.856667z170z235z3 <= 7.79
s170 - s84 + 8.855659z170z84z3 <= 7.79
s170 - s181 + 9.057416z170z181z3 <= 7.79
s170 - s142 + 9.064064z170z142z3 <= 7.79
s170 - s56 + 8.980905z170z56z3 <= 7.79
s170 - s259 + 8.927437z170z259z3 <= 7.79
s204 - s261 + 8.884907z204z261z2 <= 7.87
s204 - s235 + 8.964281z204z235z1 <= 7.87
s204 - s84 + 8.991655z204z84z1 <= 7.87
s204 - s181 + 9.053424z204z181z2 <= 7.87
s204 - s215 + 8.997366z204z215z1 <= 7.87
s204 - s215 + 8.997366z204z215z2 <= 7.87
s204 - s56 + 8.964281z204z56z2 <= 7.87
s204 - s189 + 8.960676z204z189z1 <= 7.87
s204 - s189 + 8.960676z204z189z2 <= 7.87
s204 - s33 + 9.043333z204z33z2 <= 7.87
s204 - s191 + 9.032207z204z191z1 <= 7.87
s204 - s191 + 9.032207z204z191z2 <= 7.87
s204 - s257 + 8.996490z204z257z2 <= 7.87
s204 - s259 + 9.127251z204z259z2 <= 7.87
s204 - s35 + 9.025063z204z35z2 <= 7.87
s261 - s84 + 9.038134z261z84z3 <= 7.92
s261 - s215 + 9.053333z261z215z2 <= 7.92
s261 - s56 + 9.000278z261z56z2 <= 7.92
s261 - s56 + 9.000278z261z56z3 <= 7.92
s261 - s189 + 8.996012z261z189z2 <= 7.92
s261 - s33 + 9.100493z261z33z2 <= 7.92
s261 - s191 + 9.087199z261z191z2 <= 7.92
s261 - s257 + 9.031754z261z257z2 <= 7.92
s261 - s259 + 9.178886z261z259z2 <= 7.92
s261 - s259 + 9.178886z261z259z3 <= 7.92
s261 - s35 + 9.066363z261z35z2 <= 7.92
s235 - s84 + 9.037488z235z84z1 <= 8.01
s235 - s84 + 9.037488z235z84z3 <= 8.01
s235 - s56 + 9.143333z235z56z3 <= 8.01
s235 - s189 + 9.130185z235z189z1 <= 8.01
s235 - s191 + 9.266472z235z191z1 <= 8.01
s235 - s259 + 9.184484z235z259z3 <= 8.01
s84 - s259 + 9.241144z84z259z3 <= 8.09
s181 - s142 + 9.096666z181z142z3 <= 8.09
s181 - s33 + 9.150000z181z33z2 <= 8.09
s181 - s191 + 9.177687z181z191z2 <= 8.09
s181 - s35 + 9.316667z181z35z2 <= 8.09
s215 - s33 + 9.168534z215z33z2 <= 8.12
s215 - s191 + 9.155901z215z191z1 <= 8.12
s215 - s191 + 9.155901z215z191z2 <= 8.12
s215 - s35 + 9.260159z215z35z2 <= 8.12
s56 - s257 + 9.217712z56z257z2 <= 8.18
s56 - s35 + 9.272616z56z35z2 <= 8.18
s189 - s257 + 9.215901z189z257z2 <= 8.18
s189 - s35 + 9.287497z189z35z2 <= 8.18

x182x235x3 - 1z182z235z3 <= 0
x182x84x3 - 1z182z84z3 <= 0
x182x181x3 - 1z182z181z3 <= 0
x182x142x3 - 2z182z142z3 <= 0
x182x56x3 - 1z182z56z3 <= 0
x182x259x3 - 1z182z259z3 <= 0
x234x21x1 - 1z234z21z1 <= 0
x234x204x1 - 1z234z204z1 <= 0
x234x235x1 - 1z234z235z1 <= 0
x234x84x1 - 1z234z84z1 <= 0
x234x215x1 - 1z234z215z1 <= 0
x234x189x1 - 1z234z189z1 <= 0
x234x191x1 - 1z234z191z1 <= 0
x145x259x3 - 1z145z259z3 <= 0
x81x87x1 - 2z81z87z1 <= 0
x81x21x1 - 1z81z21z1 <= 0
x81x71x1 - 2z81z71z1 <= 0
x81x106x1 - 1z81z106z1 <= 0
x81x204x1 - 1z81z204z1 <= 0
x81x235x1 - 1z81z235z1 <= 0
x81x84x1 - 1z81z84z1 <= 0
x81x215x1 - 1z81z215z1 <= 0
x81x189x1 - 1z81z189z1 <= 0
x81x191x1 - 1z81z191z1 <= 0
x159x204x1 - 1z159z204z1 <= 0
x159x261x3 - 1z159z261z3 <= 0
x159x235x1 - 1z159z235z1 <= 0
x159x235x3 - 1z159z235z3 <= 0
x159x84x1 - 1z159z84z1 <= 0
x159x84x3 - 1z159z84z3 <= 0
x159x181x3 - 1z159z181z3 <= 0
x159x142x3 - 2z159z142z3 <= 0
x159x215x1 - 1z159z215z1 <= 0
x159x56x3 - 1z159z56z3 <= 0
x159x189x1 - 1z159z189z1 <= 0
x159x191x1 - 1z159z191z1 <= 0
x159x259x3 - 1z159z259z3 <= 0
x123x261x2 - 1z123z261z2 <= 0
x123x181x2 - 1z123z181z2 <= 0
x123x215x2 - 1z123z215z2 <= 0
x123x56x2 - 1z123z56z2 <= 0
x123x189x2 - 1z123z189z2 <= 0
x123x33x2 - 2z123z33z2 <= 0
x123x191x2 - 1z123z191z2 <= 0
x123x257x2 - 2z123z257z2 <= 0
x123x259x2 - 1z123z259z2 <= 0
x123x35x2 - 2z123z35z2 <= 0
x165x33x2 - 2z165z33z2 <= 0
x165x191x2 - 1z165z191z2 <= 0
x165x257x2 - 2z165z257z2 <= 0
x165x259x2 - 1z165z259z2 <= 0
x165x35x2 - 2z165z35z2 <= 0
x23x87x1 - 2z23z87z1 <= 0
x23x21x1 - 1z23z21z1 <= 0
x23x71x1 - 2z23z71z1 <= 0
x23x106x1 - 1z23z106z1 <= 0
x23x204x1 - 1z23z204z1 <= 0
x23x235x1 - 1z23z235z1 <= 0
x23x84x1 - 1z23z84z1 <= 0
x23x215x1 - 1z23z215z1 <= 0
x23x189x1 - 1z23z189z1 <= 0
x23x191x1 - 1z23z191z1 <= 0
x37x21x3 - 1z37z21z3 <= 0
x37x106x3 - 1z37z106z3 <= 0
x37x170x3 - 2z37z170z3 <= 0
x37x204x2 - 1z37z204z2 <= 0
x37x261x2 - 1z37z261z2 <= 0
x37x261x3 - 1z37z261z3 <= 0
x37x235x3 - 1z37z235z3 <= 0
x37x84x3 - 1z37z84z3 <= 0
x37x181x2 - 1z37z181z2 <= 0
x37x181x3 - 1z37z181z3 <= 0
x37x142x3 - 2z37z142z3 <= 0
x37x215x2 - 1z37z215z2 <= 0
x37x56x2 - 1z37z56z2 <= 0
x37x56x3 - 1z37z56z3 <= 0
x37x189x2 - 1z37z189z2 <= 0
x37x33x2 - 2z37z33z2 <= 0
x37x191x2 - 1z37z191z2 <= 0
x37x257x2 - 2z37z257z2 <= 0
x37x259x2 - 1z37z259z2 <= 0
x37x259x3 - 1z37z259z3 <= 0
x37x35x2 - 2z37z35z2 <= 0
x82x21x3 - 1z82z21z3 <= 0
x82x106x3 - 1z82z106z3 <= 0
x82x170x3 - 2z82z170z3 <= 0
x82x204x2 - 1z82z204z2 <= 0
x82x261x2 - 1z82z261z2 <= 0
x82x261x3 - 1z82z261z3 <= 0
x82x235x3 - 1z82z235z3 <= 0
x82x84x3 - 1z82z84z3 <= 0
x82x181x2 - 1z82z181z2 <= 0
x82x181x3 - 1z82z181z3 <= 0
x82x142x3 - 2z82z142z3 <= 0
x82x215x2 - 1z82z215z2 <= 0
x82x56x2 - 1z82z56z2 <= 0
x82x56x3 - 1z82z56z3 <= 0
x82x189x2 - 1z82z189z2 <= 0
x82x33x2 - 2z82z33z2 <= 0
x82x191x2 - 1z82z191z2 <= 0
x82x257x2 - 2z82z257z2 <= 0
x82x259x2 - 1z82z259z2 <= 0
x82x259x3 - 1z82z259z3 <= 0
x82x35x2 - 2z82z35z2 <= 0
x264x87x1 - 2z264z87z1 <= 0
x264x21x1 - 1z264z21z1 <= 0
x264x71x1 - 2z264z71z1 <= 0
x264x106x1 - 1z264z106z1 <= 0
x264x204x1 - 1z264z204z1 <= 0
x264x235x1 - 1z264z235z1 <= 0
x264x84x1 - 1z264z84z1 <= 0
x264x215x1 - 1z264z215z1 <= 0
x264x189x1 - 1z264z189z1 <= 0
x264x191x1 - 1z264z191z1 <= 0
x263x87x1 - 2z263z87z1 <= 0
x263x21x1 - 1z263z21z1 <= 0
x263x71x1 - 2z263z71z1 <= 0
x263x106x1 - 1z263z106z1 <= 0
x263x204x1 - 1z263z204z1 <= 0
x263x235x1 - 1z263z235z1 <= 0
x263x84x1 - 1z263z84z1 <= 0
x263x215x1 - 1z263z215z1 <= 0
x263x189x1 - 1z263z189z1 <= 0
x263x191x1 - 1z263z191z1 <= 0
x178x87x1 - 2z178z87z1 <= 0
x178x21x1 - 1z178z21z1 <= 0
x178x71x1 - 2z178z71z1 <= 0
x178x106x1 - 1z178z106z1 <= 0
x178x204x1 - 1z178z204z1 <= 0
x178x235x1 - 1z178z235z1 <= 0
x178x84x1 - 1z178z84z1 <= 0
x178x215x1 - 1z178z215z1 <= 0
x178x189x1 - 1z178z189z1 <= 0
x178x191x1 - 1z178z191z1 <= 0
x87x204x1 - 1z87z204z1 <= 0
x87x235x1 - 1z87z235z1 <= 0
x87x84x1 - 1z87z84z1 <= 0
x87x215x1 - 1z87z215z1 <= 0
x87x189x1 - 1z87z189z1 <= 0
x87x191x1 - 1z87z191z1 <= 0
x87x0x1 <= 2
x21x235x1 - 1z21z235z1 <= 0
x21x235x3 - 1z21z235z3 <= 0
x21x84x1 - 1z21z84z1 <= 0
x21x84x3 - 1z21z84z3 <= 0
x21x181x3 - 1z21z181z3 <= 0
x21x142x3 - 2z21z142z3 <= 0
x21x215x1 - 1z21z215z1 <= 0
x21x56x3 - 1z21z56z3 <= 0
x21x189x1 - 1z21z189z1 <= 0
x21x191x1 - 1z21z191z1 <= 0
x21x259x3 - 1z21z259z3 <= 0
x21x0x1 <= 1
x21x0x3 <= 1
x71x204x1 - 1z71z204z1 <= 0
x71x235x1 - 1z71z235z1 <= 0
x71x84x1 - 1z71z84z1 <= 0
x71x215x1 - 1z71z215z1 <= 0
x71x189x1 - 1z71z189z1 <= 0
x71x191x1 - 1z71z191z1 <= 0
x71x0x1 <= 2
x106x204x1 - 1z106z204z1 <= 0
x106x261x3 - 1z106z261z3 <= 0
x106x235x1 - 1z106z235z1 <= 0
x106x235x3 - 1z106z235z3 <= 0
x106x84x1 - 1z106z84z1 <= 0
x106x84x3 - 1z106z84z3 <= 0
x106x181x3 - 1z106z181z3 <= 0
x106x142x3 - 2z106z142z3 <= 0
x106x215x1 - 1z106z215z1 <= 0
x106x56x3 - 1z106z56z3 <= 0
x106x189x1 - 1z106z189z1 <= 0
x106x191x1 - 1z106z191z1 <= 0
x106x259x3 - 1z106z259z3 <= 0
x106x0x1 <= 1
x106x0x3 <= 1
x170x261x3 - 1z170z261z3 <= 0
x170x235x3 - 1z170z235z3 <= 0
x170x84x3 - 1z170z84z3 <= 0
x170x181x3 - 1z170z181z3 <= 0
x170x142x3 - 2z170z142z3 <= 0
x170x56x3 - 1z170z56z3 <= 0
x170x259x3 - 1z170z259z3 <= 0
x170x0x3 <= 2
x204x261x2 - 1z204z261z2 <= 0
x204x235x1 - 1z204z235z1 <= 0
x204x84x1 - 1z204z84z1 <= 0
x204x181x2 - 1z204z181z2 <= 0
x204x215x1 - 1z204z215z1 <= 0
x204x215x2 - 1z204z215z2 <= 0
x204x56x2 - 1z204z56z2 <= 0
x204x189x1 - 1z204z189z1 <= 0
x204x189x2 - 1z204z189z2 <= 0
x204x33x2 - 2z204z33z2 <= 0
x204x191x1 - 1z204z191z1 <= 0
x204x191x2 - 1z204z191z2 <= 0
x204x257x2 - 2z204z257z2 <= 0
x204x259x2 - 1z204z259z2 <= 0
x204x35x2 - 2z204z35z2 <= 0
x204x0x1 <= 1
x204x0x2 <= 1
x261x84x3 - 1z261z84z3 <= 0
x261x215x2 - 1z261z215z2 <= 0
x261x56x2 - 1z261z56z2 <= 0
x261x56x3 - 1z261z56z3 <= 0
x261x189x2 - 1z261z189z2 <= 0
x261x33x2 - 2z261z33z2 <= 0
x261x191x2 - 1z261z191z2 <= 0
x261x257x2 - 2z261z257z2 <= 0
x261x259x2 - 1z261z259z2 <= 0
x261x259x3 - 1z261z259z3 <= 0
x261x35x2 - 2z261z35z2 <= 0
x261x0x2 <= 1
x261x0x3 <= 1
x235x84x1 - 1z235z84z1 <= 0
x235x84x3 - 1z235z84z3 <= 0
x235x56x3 - 1z235z56z3 <= 0
x235x189x1 - 1z235z189z1 <= 0
x235x191x1 - 1z235z191z1 <= 0
x235x259x3 - 1z235z259z3 <= 0
x235x0x1 <= 1
x235x0x3 <= 1
x84x259x3 - 1z84z259z3 <= 0
x84x0x1 <= 1
x84x0x3 <= 1
x181x142x3 - 2z181z142z3 <= 0
x181x33x2 - 2z181z33z2 <= 0
x181x191x2 - 1z181z191z2 <= 0
x181x35x2 - 2z181z35z2 <= 0
x181x0x2 <= 1
x181x0x3 <= 1
x142x0x3 <= 2
x215x33x2 - 2z215z33z2 <= 0
x215x191x1 - 1z215z191z1 <= 0
x215x191x2 - 1z215z191z2 <= 0
x215x35x2 - 2z215z35z2 <= 0
x215x0x1 <= 1
x215x0x2 <= 1
x56x257x2 - 2z56z257z2 <= 0
x56x35x2 - 2z56z35z2 <= 0
x56x0x2 <= 1
x56x0x3 <= 1
x189x257x2 - 2z189z257z2 <= 0
x189x35x2 - 2z189z35z2 <= 0
x189x0x1 <= 1
x189x0x2 <= 1
x33x0x2 <= 2
x191x0x1 <= 1
x191x0x2 <= 1
x257x0x2 <= 2
x259x0x2 <= 1
x259x0x3 <= 1
x35x0x2 <= 2

Bounds
s182 = 6.552554
s234 = 6.413017
s145 = 6.838611
s81 = 6.316033
s159 = 6.630536
s123 = 6.713951
s72 = 7.307927
s54 = 7.483085
s165 = 7.026293
s233 = 7.416033
s23 = 5.379260
s37 = 5.839810
s82 = 5.974330
s264 = 4.890640
s263 = 4.904290
s178 = 4.972430
6.620000 <= s87 <= 7.620000
6.660000 <= s21 <= 7.660000
6.670000 <= s71 <= 7.670000
6.720000 <= s106 <= 7.720000
6.790000 <= s170 <= 7.790000
6.870000 <= s204 <= 7.870000
6.920000 <= s261 <= 7.920000
7.010000 <= s235 <= 8.010000
7.090000 <= s84 <= 8.090000
7.090000 <= s181 <= 8.090000
7.120000 <= s142 <= 8.120000
7.120000 <= s215 <= 8.120000
7.180000 <= s56 <= 8.180000
7.180000 <= s189 <= 8.180000
7.270000 <= s33 <= 8.270000
7.290000 <= s191 <= 8.290000
7.300000 <= s257 <= 8.300000
7.330000 <= s259 <= 8.330000
7.370000 <= s35 <= 8.370000

General
x182x235x3 x182x84x3 x182x181x3 x182x142x3 x182x56x3 x182x259x3 
x234x21x1 x234x204x1 x234x235x1 x234x84x1 x234x215x1 x234x189x1 x234x191x1 
x145x259x3 
x81x87x1 x81x21x1 x81x71x1 x81x106x1 x81x204x1 x81x235x1 x81x84x1 x81x215x1 x81x189x1 x81x191x1 
x159x204x1 x159x261x3 x159x235x1 x159x235x3 x159x84x1 x159x84x3 x159x181x3 x159x142x3 x159x215x1 x159x56x3 x159x189x1 x159x191x1 x159x259x3 
x123x261x2 x123x181x2 x123x215x2 x123x56x2 x123x189x2 x123x33x2 x123x191x2 x123x257x2 x123x259x2 x123x35x2 


x165x33x2 x165x191x2 x165x257x2 x165x259x2 x165x35x2 

x23x87x1 x23x21x1 x23x71x1 x23x106x1 x23x204x1 x23x235x1 x23x84x1 x23x215x1 x23x189x1 x23x191x1 
x37x21x3 x37x106x3 x37x170x3 x37x204x2 x37x261x2 x37x261x3 x37x235x3 x37x84x3 x37x181x2 x37x181x3 x37x142x3 x37x215x2 x37x56x2 x37x56x3 x37x189x2 x37x33x2 x37x191x2 x37x257x2 x37x259x2 x37x259x3 x37x35x2 
x82x21x3 x82x106x3 x82x170x3 x82x204x2 x82x261x2 x82x261x3 x82x235x3 x82x84x3 x82x181x2 x82x181x3 x82x142x3 x82x215x2 x82x56x2 x82x56x3 x82x189x2 x82x33x2 x82x191x2 x82x257x2 x82x259x2 x82x259x3 x82x35x2 
x264x87x1 x264x21x1 x264x71x1 x264x106x1 x264x204x1 x264x235x1 x264x84x1 x264x215x1 x264x189x1 x264x191x1 
x263x87x1 x263x21x1 x263x71x1 x263x106x1 x263x204x1 x263x235x1 x263x84x1 x263x215x1 x263x189x1 x263x191x1 
x178x87x1 x178x21x1 x178x71x1 x178x106x1 x178x204x1 x178x235x1 x178x84x1 x178x215x1 x178x189x1 x178x191x1 
x87x204x1 x87x235x1 x87x84x1 x87x215x1 x87x189x1 x87x191x1 x87x0x1 
x21x235x1 x21x235x3 x21x84x1 x21x84x3 x21x181x3 x21x142x3 x21x215x1 x21x56x3 x21x189x1 x21x191x1 x21x259x3 x21x0x1 x21x0x3 
x71x204x1 x71x235x1 x71x84x1 x71x215x1 x71x189x1 x71x191x1 x71x0x1 
x106x204x1 x106x261x3 x106x235x1 x106x235x3 x106x84x1 x106x84x3 x106x181x3 x106x142x3 x106x215x1 x106x56x3 x106x189x1 x106x191x1 x106x259x3 x106x0x1 x106x0x3 
x170x261x3 x170x235x3 x170x84x3 x170x181x3 x170x142x3 x170x56x3 x170x259x3 x170x0x3 
x204x261x2 x204x235x1 x204x84x1 x204x181x2 x204x215x1 x204x215x2 x204x56x2 x204x189x1 x204x189x2 x204x33x2 x204x191x1 x204x191x2 x204x257x2 x204x259x2 x204x35x2 x204x0x1 x204x0x2 
x261x84x3 x261x215x2 x261x56x2 x261x56x3 x261x189x2 x261x33x2 x261x191x2 x261x257x2 x261x259x2 x261x259x3 x261x35x2 x261x0x2 x261x0x3 
x235x84x1 x235x84x3 x235x56x3 x235x189x1 x235x191x1 x235x259x3 x235x0x1 x235x0x3 
x84x259x3 x84x0x1 x84x0x3 
x181x142x3 x181x33x2 x181x191x2 x181x35x2 x181x0x2 x181x0x3 
x142x0x3 
x215x33x2 x215x191x1 x215x191x2 x215x35x2 x215x0x1 x215x0x2 
x56x257x2 x56x35x2 x56x0x2 x56x0x3 
x189x257x2 x189x35x2 x189x0x1 x189x0x2 
x33x0x2 
x191x0x1 x191x0x2 
x257x0x2 
x259x0x2 x259x0x3 
x35x0x2 

Binaries
y87 y21 y71 y106 y170 y204 y261 y235 y84 y181 y142 y215 y56 y189 y33 y191 y257 y259 y35 
z182z235z3 z182z84z3 z182z181z3 z182z142z3 z182z56z3 z182z259z3 
z234z21z1 z234z204z1 z234z235z1 z234z84z1 z234z215z1 z234z189z1 z234z191z1 
z145z259z3 
z81z87z1 z81z21z1 z81z71z1 z81z106z1 z81z204z1 z81z235z1 z81z84z1 z81z215z1 z81z189z1 z81z191z1 
z159z204z1 z159z261z3 z159z235z1 z159z235z3 z159z84z1 z159z84z3 z159z181z3 z159z142z3 z159z215z1 z159z56z3 z159z189z1 z159z191z1 z159z259z3 
z123z261z2 z123z181z2 z123z215z2 z123z56z2 z123z189z2 z123z33z2 z123z191z2 z123z257z2 z123z259z2 z123z35z2 


z165z33z2 z165z191z2 z165z257z2 z165z259z2 z165z35z2 

z23z87z1 z23z21z1 z23z71z1 z23z106z1 z23z204z1 z23z235z1 z23z84z1 z23z215z1 z23z189z1 z23z191z1 
z37z21z3 z37z106z3 z37z170z3 z37z204z2 z37z261z2 z37z261z3 z37z235z3 z37z84z3 z37z181z2 z37z181z3 z37z142z3 z37z215z2 z37z56z2 z37z56z3 z37z189z2 z37z33z2 z37z191z2 z37z257z2 z37z259z2 z37z259z3 z37z35z2 
z82z21z3 z82z106z3 z82z170z3 z82z204z2 z82z261z2 z82z261z3 z82z235z3 z82z84z3 z82z181z2 z82z181z3 z82z142z3 z82z215z2 z82z56z2 z82z56z3 z82z189z2 z82z33z2 z82z191z2 z82z257z2 z82z259z2 z82z259z3 z82z35z2 
z264z87z1 z264z21z1 z264z71z1 z264z106z1 z264z204z1 z264z235z1 z264z84z1 z264z215z1 z264z189z1 z264z191z1 
z263z87z1 z263z21z1 z263z71z1 z263z106z1 z263z204z1 z263z235z1 z263z84z1 z263z215z1 z263z189z1 z263z191z1 
z178z87z1 z178z21z1 z178z71z1 z178z106z1 z178z204z1 z178z235z1 z178z84z1 z178z215z1 z178z189z1 z178z191z1 
z87z204z1 z87z235z1 z87z84z1 z87z215z1 z87z189z1 z87z191z1 
z21z235z1 z21z235z3 z21z84z1 z21z84z3 z21z181z3 z21z142z3 z21z215z1 z21z56z3 z21z189z1 z21z191z1 z21z259z3 
z71z204z1 z71z235z1 z71z84z1 z71z215z1 z71z189z1 z71z191z1 
z106z204z1 z106z261z3 z106z235z1 z106z235z3 z106z84z1 z106z84z3 z106z181z3 z106z142z3 z106z215z1 z106z56z3 z106z189z1 z106z191z1 z106z259z3 
z170z261z3 z170z235z3 z170z84z3 z170z181z3 z170z142z3 z170z56z3 z170z259z3 
z204z261z2 z204z235z1 z204z84z1 z204z181z2 z204z215z1 z204z215z2 z204z56z2 z204z189z1 z204z189z2 z204z33z2 z204z191z1 z204z191z2 z204z257z2 z204z259z2 z204z35z2 
z261z84z3 z261z215z2 z261z56z2 z261z56z3 z261z189z2 z261z33z2 z261z191z2 z261z257z2 z261z259z2 z261z259z3 z261z35z2 
z235z84z1 z235z84z3 z235z56z3 z235z189z1 z235z191z1 z235z259z3 
z84z259z3 
z181z142z3 z181z33z2 z181z191z2 z181z35z2 

z215z33z2 z215z191z1 z215z191z2 z215z35z2 
z56z257z2 z56z35z2 
z189z257z2 z189z35z2 






End